LAMMPS (13 Jan 2014)
# (written by pyLammps)

atom_style charge
units metal
boundary p p p
read_data data.lmp
  triclinic box = (0 0 0) to (11.0908 10.4565 9.05566) with tilt (-3.69689 -3.69689 -5.22817)
  1 by 1 by 1 MPI processor grid
  104 atoms

# Groups
group La type 1
12 atoms in group La
group Li type 2
36 atoms in group Li
group O type 3
48 atoms in group O
group Zr type 4
8 atoms in group Zr

### interactions
kspace_style ewald 1.0e-5
pair_style buck/coul/long 8.0
pair_coeff * * 0.00  0.100000  0.000000
pair_coeff 1 3 5436.827  0.293900  0.000000
pair_coeff 3 4 7290.347  0.261000  0.000000
pair_coeff 3 3 25.410  0.693700 32.320000
pair_coeff 2 3 426.480  0.300000  0.000000

fix 1 all nvt temp 2700 2700 100
compute msd all msd
compute msdLa La msd
compute msdLi Li msd
compute msdO O msd
compute msdZr Zr msd

thermo 100
thermo_style custom step time temp pe ke etotal press
dump            1 all custom 100 xyz.dat id type x y z
dump            2 all custom 100 velocity.dat id type vx vy vz
dump            3 all custom 100 forces.dat id type fx fy fz

variable t equal step*dt
variable msd_tot equal c_msd[4]
fix tot_msd all print 100  "${t}    ${msd_tot}" file total.msd screen no
variable msd_La equal c_msdLa[4]
fix La_msd all print 100 "${t}    ${msd_La}" file La.msd screen no
variable msd_Li equal c_msdLi[4]
fix Li_msd all print 100 "${t}    ${msd_Li}" file Li.msd screen no
variable msd_O equal c_msdO[4]
fix O_msd all print 100 "${t}    ${msd_O}" file O.msd screen no
variable msd_Zr equal c_msdZr[4]
fix Zr_msd all print 100 "${t}    ${msd_Zr}" file Zr.msd screen no

run 20000
Ewald initialization ...
WARNING: System is not charge neutral, net charge = 8 (../ewald.cpp:136)
  G vector (1/distance) = 0.424
  estimated absolute RMS force accuracy = 0.000147115
  estimated relative force accuracy = 1.02166e-05
  KSpace vectors: actual max1d max3d = 100 6 1098
                  kxmax kymax kzmax  = 6 3 1
Memory usage per processor = 6.63877 Mbytes
Step Time Temp PotEng KinEng TotEng Press 
       0            0            0   -2156.2349            0   -2156.2349    240423.61 
     100          0.1    389.25135   -2161.4516    5.1824127   -2156.2692    163818.91 
     200          0.2     290.8073   -2160.1214    3.8717487   -2156.2496    129204.26 
     300          0.3    272.87341   -2159.8786    3.6329807   -2156.2456    160245.33 
     400          0.4    424.01682   -2161.9113     5.645273    -2156.266    189625.01 
     500          0.5    323.16762   -2160.5545    4.3025874   -2156.2519    250926.81 
     600          0.6    614.55125   -2164.4611    8.1820094   -2156.2791     218568.3 
     700          0.7    315.87213   -2160.4477    4.2054568   -2156.2423    163751.45 
     800          0.8    433.60381   -2162.0223    5.7729122   -2156.2494    200781.25 
     900          0.9    563.93002   -2163.7825    7.5080486   -2156.2745    234788.46 
    1000            1     326.1352   -2160.5901    4.3420972    -2156.248    278577.88 
    1100          1.1     441.8774   -2162.1466    5.8830651   -2156.2635    286153.98 
    1200          1.2    392.96823   -2161.4848    5.2318985   -2156.2529    215556.63 
    1300          1.3    325.71569   -2160.5826    4.3365119   -2156.2461    203449.67 
    1400          1.4    420.36016   -2161.8553    5.5965889   -2156.2587    250341.94 
    1500          1.5    358.26234   -2161.0196    4.7698313   -2156.2498    258634.35 
    1600          1.6    393.09714   -2161.4887    5.2336147    -2156.255    241289.41 
    1700          1.7    377.54527   -2161.2787    5.0265603   -2156.2522    217114.21 
    1800          1.8    323.04844     -2160.55    4.3010007    -2156.249    205869.92 
    1900          1.9    367.62111   -2161.1475     4.894432    -2156.253    236630.44 
    2000            2    393.40902   -2161.4907     5.237767   -2156.2529    254664.15 
    2100          2.1    372.31178   -2161.2081    4.9568828   -2156.2512     251742.7 
    2200          2.2    402.73742   -2161.6147    5.3619634   -2156.2527    232467.74 
    2300          2.3    365.21036   -2161.1134    4.8623358   -2156.2511     213848.3 
    2400          2.4    373.95661   -2161.2305    4.9787816   -2156.2517    225370.06 
    2500          2.5    380.69091   -2161.3206    5.0684408   -2156.2522    239538.11 
    2600          2.6     391.1159   -2161.4565    5.2072369   -2156.2493     238909.2 
    2700          2.7    386.08676   -2161.3907    5.1402799   -2156.2504    230449.23 
    2800          2.8    347.84585   -2160.8806    4.6311484   -2156.2494    236663.76 
    2900          2.9     357.6765     -2161.01    4.7620315    -2156.248    230623.17 
    3000            3    316.09669   -2160.4575    4.2084465   -2156.2491    239716.23 
    3100          3.1    378.78279   -2161.2928    5.0430364   -2156.2498     237569.6 
    3200          3.2    381.90219   -2161.3329    5.0845674   -2156.2483    239908.33 
    3300          3.3    413.41099    -2161.753    5.5040692    -2156.249    235931.31 
    3400          3.4    371.13244   -2161.1891    4.9411812   -2156.2479     234132.1 
    3500          3.5    391.29637   -2161.4574    5.2096396   -2156.2478    239322.58 
    3600          3.6    372.35731   -2161.2037    4.9574889   -2156.2462    234784.74 
    3700          3.7     373.9603   -2161.2233    4.9788307   -2156.2444    229398.54 
    3800          3.8    349.55424   -2160.8997    4.6538935   -2156.2459    243770.93 
    3900          3.9    410.32827   -2161.7106    5.4630264   -2156.2476    242742.94 
    4000            4    415.50455   -2161.7778    5.5319424   -2156.2458    232013.32 
    4100          4.1    375.85741   -2161.2484    5.0040885   -2156.2443    236714.21 
    4200          4.2    376.01878   -2161.2499    5.0062369   -2156.2437    225078.09 
    4300          4.3    385.08669    -2161.375    5.1269652    -2156.248    240949.52 
    4400          4.4    360.45395   -2161.0462      4.79901   -2156.2472    233825.54 
    4500          4.5    343.75634   -2160.8185    4.5767014   -2156.2418    232153.42 
    4600          4.6    356.35057   -2160.9866    4.7443785   -2156.2423    240328.46 
    4700          4.7    388.96756   -2161.4215    5.1786343   -2156.2428    236373.49 
    4800          4.8    365.24833   -2161.1059    4.8628414   -2156.2431     228867.6 
    4900          4.9    349.90227   -2160.9019    4.6585271   -2156.2433    236619.36 
    5000            5     385.2725    -2161.374    5.1294391   -2156.2445     228640.6 
    5100          5.1    389.41481   -2161.4258    5.1845889   -2156.2412    228307.09 
    5200          5.2     384.4936   -2161.3603    5.1190689   -2156.2413    228636.78 
    5300          5.3    367.57282   -2161.1352    4.8937891   -2156.2414    248285.25 
    5400          5.4    359.98281    -2161.033    4.7927373   -2156.2403    244759.05 
    5500          5.5    382.73682   -2161.3377    5.0956795    -2156.242    238180.14 
    5600          5.6    361.74508   -2161.0547    4.8161998   -2156.2385    244615.06 
    5700          5.7    355.49137   -2160.9687    4.7329392   -2156.2358    242964.14 
    5800          5.8    398.93878   -2161.5486    5.3113891   -2156.2372    234067.27 
    5900          5.9     368.8612    -2161.147    4.9109424   -2156.2361    236211.92 
    6000            6    358.07748   -2161.0045    4.7673702   -2156.2371    234008.51 
    6100          6.1    349.62252   -2160.8931    4.6548026   -2156.2383     241526.2 
    6200          6.2    363.31699   -2161.0731     4.837128    -2156.236     230805.6 
    6300          6.3    352.05625   -2160.9208    4.6872047   -2156.2336    230544.28 
    6400          6.4    397.25886   -2161.5253    5.2890231   -2156.2362    238775.02 
    6500          6.5    380.19418   -2161.2967    5.0618274   -2156.2349    241232.03 
    6600          6.6    412.56065   -2161.7265    5.4927479   -2156.2337    228007.44 
    6700          6.7    329.23897   -2160.6143    4.3834202   -2156.2309    227612.49 
    6800          6.8     355.0582   -2160.9612    4.7271721    -2156.234    238753.62 
    6900          6.9    409.24954   -2161.6823    5.4486645   -2156.2337    229731.94 
    7000            7     395.7941   -2161.5039    5.2695215   -2156.2344    242550.06 
    7100          7.1    383.34663   -2161.3357    5.1037985   -2156.2319    230121.08 
    7200          7.2    389.85393   -2161.4208    5.1904352   -2156.2303    234758.29 
    7300          7.3    387.91073   -2161.3942    5.1645639   -2156.2296    239174.65 
    7400          7.4    383.59539   -2161.3376    5.1071103   -2156.2305       242663 
    7500          7.5    350.35095   -2160.8933    4.6645007   -2156.2288    228365.02 
    7600          7.6    371.35039   -2161.1725    4.9440829   -2156.2284    229966.85 
    7700          7.7    374.73618   -2161.2163    4.9891607   -2156.2271    235544.63 
    7800          7.8    349.28893   -2160.8773    4.6503613    -2156.227    233712.14 
    7900          7.9    409.26546   -2161.6762    5.4488764   -2156.2273    234367.52 
    8000            8    387.18483     -2161.38    5.1548995   -2156.2251    236748.14 
    8100          8.1    394.27703   -2161.4755    5.2493235   -2156.2261    235859.28 
    8200          8.2    396.61764   -2161.5049    5.2804859   -2156.2244    234231.55 
    8300          8.3    351.07644   -2160.8957    4.6741598   -2156.2216    227327.88 
    8400          8.4    378.66493   -2161.2654    5.0414672   -2156.2239    229815.04 
    8500          8.5     342.1196   -2160.7751    4.5549102   -2156.2202    232659.89 
    8600          8.6    354.43185   -2160.9406    4.7188329   -2156.2217    228647.14 
    8700          8.7    349.31171   -2160.8682    4.6506645   -2156.2175    228775.82 
    8800          8.8    402.19623   -2161.5756    5.3547581   -2156.2209    216534.42 
    8900          8.9    376.85243   -2161.2362     5.017336   -2156.2188    234789.14 
    9000            9     399.5677   -2161.5391    5.3197625   -2156.2194    244817.21 
    9100          9.1    406.54757   -2161.6318     5.412691   -2156.2191    239893.83 
    9200          9.2    378.25442    -2161.254    5.0360018    -2156.218    231875.01 
    9300          9.3     395.4308     -2161.48    5.2646846   -2156.2153     233924.1 
    9400          9.4     407.8541   -2161.6464    5.4300859   -2156.2164    228072.32 
    9500          9.5    424.01694   -2161.8601    5.6452746   -2156.2148    232852.48 
    9600          9.6    381.16789   -2161.2888    5.0747911   -2156.2141    243856.58 
    9700          9.7    382.55141    -2161.305     5.093211   -2156.2118    230716.53 
    9800          9.8    396.31508   -2161.4875    5.2764577    -2156.211    231897.19 
    9900          9.9    393.74618   -2161.4574    5.2422559   -2156.2152     232100.5 
   10000           10     403.8763   -2161.5882    5.3771262   -2156.2111    228607.87 
   10100         10.1    389.06566   -2161.3911    5.1799404   -2156.2112    235921.87 
   10200         10.2     341.6848   -2160.7554    4.5491214   -2156.2063    240525.78 
   10300         10.3     379.5314    -2161.261    5.0530033    -2156.208    224203.38 
   10400         10.4    337.81248   -2160.7051    4.4975661   -2156.2075     242362.4 
   10500         10.5    405.93811   -2161.6121    5.4045767   -2156.2075    229097.28 
   10600         10.6    330.26668   -2160.6011    4.3971028    -2156.204    231095.79 
   10700         10.7    435.67982   -2162.0051    5.8005518   -2156.2045    230580.19 
   10800         10.8    371.17296    -2161.146    4.9417206   -2156.2042    223003.94 
   10900         10.9    347.33487   -2160.8255    4.6243452   -2156.2012    235213.63 
   11000           11    390.82305   -2161.4051     5.203338   -2156.2018       237764 
   11100         11.1    354.63584   -2160.9221    4.7215488   -2156.2006    234575.57 
   11200         11.2    402.33728   -2161.5576     5.356636   -2156.2009    238897.63 
   11300         11.3    373.39297     -2161.17    4.9712775   -2156.1987    230688.27 
   11400         11.4    415.59116   -2161.7307    5.5330954   -2156.1976    230987.27 
   11500         11.5     374.4094   -2161.1798      4.98481   -2156.1949    238084.58 
   11600         11.6     387.4353   -2161.3538    5.1582342   -2156.1956     225300.1 
   11700         11.7    388.40448   -2161.3643    5.1711377   -2156.1932    231222.54 
   11800         11.8    343.11422     -2160.76    4.5681524   -2156.1919     241757.1 
   11900         11.9    388.27369   -2161.3609    5.1693962   -2156.1916    231643.02 
   12000           12    380.47004   -2161.2575       5.0655    -2156.192    236766.47 
   12100         12.1    379.67725   -2161.2443     5.054945   -2156.1894    233319.05 
   12200         12.2    390.06371   -2161.3819    5.1932282   -2156.1886    236909.65 
   12300         12.3    369.09166   -2161.1009    4.9140107   -2156.1869    239972.32 
   12400         12.4    376.06511   -2161.1931    5.0068538   -2156.1863    232062.74 
   12500         12.5    362.34758   -2161.0104    4.8242214   -2156.1862    235322.97 
   12600         12.6    386.41428   -2161.3282    5.1446404   -2156.1836    229142.59 
   12700         12.7    369.92497   -2161.1064    4.9251052   -2156.1813    234787.54 
   12800         12.8    370.62105   -2161.1157    4.9343727   -2156.1814    233949.98 
   12900         12.9     390.8471   -2161.3841    5.2036582   -2156.1804    233720.04 
   13000           13    436.92789   -2161.9994    5.8171684   -2156.1822    234268.74 
   13100         13.1    392.52372   -2161.4065    5.2259803   -2156.1805    223141.76 
   13200         13.2    377.19683   -2161.1982    5.0219212   -2156.1763    238285.17 
   13300         13.3    358.34692   -2160.9485    4.7709574   -2156.1775    237834.14 
   13400         13.4    376.20385   -2161.1827    5.0087008    -2156.174    232692.03 
   13500         13.5    378.37771   -2161.2112    5.0376432   -2156.1736    236474.46 
   13600         13.6    370.66536   -2161.1111    4.9349626   -2156.1761    239558.14 
   13700         13.7    360.28471   -2160.9682    4.7967568   -2156.1714    234905.24 
   13800         13.8    408.33331   -2161.6082    5.4364659   -2156.1717    235792.85 
   13900         13.9    368.53182   -2161.0744    4.9065571   -2156.1679    242528.63 
   14000           14    420.25864   -2161.7653    5.5952374   -2156.1701     236884.5 
   14100         14.1     373.7238   -2161.1433     4.975682   -2156.1676    217247.88 
   14200         14.2     408.3031   -2161.6047    5.4360637   -2156.1687    227268.55 
   14300         14.3    375.53836   -2161.1654    4.9998407   -2156.1655    240066.09 
   14400         14.4    351.79544   -2160.8452    4.6837324   -2156.1614    244003.44 
   14500         14.5    353.19445   -2160.8626    4.7023585   -2156.1603    235496.86 
   14600         14.6    374.08584   -2161.1421    4.9805022   -2156.1616    236043.13 
   14700         14.7    365.94413   -2161.0317    4.8721051   -2156.1596    234543.73 
   14800         14.8    341.11492   -2160.6976    4.5415341   -2156.1561    231808.99 
   14900         14.9    396.32925   -2161.4336    5.2766464    -2156.157    237738.28 
   15000           15    381.07493   -2161.2274    5.0735535   -2156.1538     228892.3 
   15100         15.1    381.35218   -2161.2328    5.0772447   -2156.1555    225378.21 
   15200         15.2    365.19413   -2161.0153    4.8621197   -2156.1531     231409.6 
   15300         15.3    389.06161   -2161.3325    5.1798865   -2156.1526    223266.97 
   15400         15.4    386.56081   -2161.2983    5.1465914   -2156.1517    227236.72 
   15500         15.5    375.22396    -2161.143    4.9956548   -2156.1474    235619.53 
   15600         15.6    398.75702   -2161.4564    5.3089691   -2156.1474    225254.62 
   15700         15.7    403.37978   -2161.5185    5.3705156    -2156.148    234524.45 
   15800         15.8    376.86124   -2161.1632    5.0174532   -2156.1458    232987.22 
   15900         15.9    399.65269    -2161.465     5.320894   -2156.1441    228630.54 
   16000           16       362.41   -2160.9659    4.8250525   -2156.1408    226166.22 
   16100         16.1    395.10108   -2161.4024    5.2602948   -2156.1421    227533.03 
   16200         16.2    353.47646   -2160.8467    4.7061131   -2156.1405    243890.65 
   16300         16.3    391.99904   -2161.3567    5.2189949   -2156.1377    227620.41 
   16400         16.4    403.64935   -2161.5112    5.3741047   -2156.1371    230365.46 
   16500         16.5    386.48451   -2161.2811    5.1455755   -2156.1355    232163.92 
   16600         16.6    417.77024   -2161.6972    5.5621073   -2156.1351    241172.69 
   16700         16.7    396.46981   -2161.4121    5.2785178   -2156.1336    230865.78 
   16800         16.8    355.30699   -2160.8595    4.7304844    -2156.129    238636.86 
   16900         16.9     395.1131    -2161.389    5.2604548   -2156.1285    222477.09 
   17000           17    384.70194   -2161.2504    5.1218427   -2156.1286    235118.37 
   17100         17.1    398.03177   -2161.4266    5.2993133   -2156.1273     242990.5 
   17200         17.2    373.29487   -2161.0944    4.9699714   -2156.1244    233986.03 
   17300         17.3    426.15432   -2161.7988    5.6737312    -2156.125    229895.57 
   17400         17.4    355.05207   -2160.8484    4.7270904   -2156.1213    231272.17 
   17500         17.5     379.0572   -2161.1675    5.0466898   -2156.1208       227684 
   17600         17.6    364.50615   -2160.9708    4.8529601   -2156.1178     233484.5 
   17700         17.7    366.91947   -2161.0018    4.8850906   -2156.1167    224974.84 
   17800         17.8    359.51359   -2160.9024    4.7864902    -2156.116    236804.79 
   17900         17.9    377.17811   -2161.1382     5.021672   -2156.1166    250223.76 
   18000           18    368.84518   -2161.0231    4.9107291   -2156.1124    231018.15 
   18100         18.1    408.31535   -2161.5499    5.4362269   -2156.1137    228176.66 
   18200         18.2    376.79825    -2161.126    5.0166147   -2156.1094    234879.21 
   18300         18.3    340.95749   -2160.6445    4.5394381   -2156.1051     244119.2 
   18400         18.4    411.02986   -2161.5796    5.4723673   -2156.1073    239556.01 
   18500         18.5    372.60586   -2161.0656     4.960798   -2156.1048    236217.89 
   18600         18.6    360.18602   -2160.8969    4.7954427   -2156.1015    238666.96 
   18700         18.7    341.63886   -2160.6499    4.5485097   -2156.1014    246699.51 
   18800         18.8    376.47302   -2161.1132    5.0122846   -2156.1009    243928.15 
   18900         18.9    383.69802   -2161.2072    5.1084767   -2156.0987    228284.75 
   19000           19    403.19161   -2161.4644    5.3680105   -2156.0964    224574.68 
   19100         19.1    392.97268   -2161.3299    5.2319577    -2156.098    228741.22 
   19200         19.2    411.34315   -2161.5706    5.4765383   -2156.0941    236523.47 
   19300         19.3     391.3679   -2161.3016    5.2105919    -2156.091     239657.9 
   19400         19.4    361.87801   -2160.9086    4.8179696   -2156.0906    235965.04 
   19500         19.5    345.21426    -2160.682    4.5961119   -2156.0858     239021.5 
   19600         19.6     321.3039   -2160.3594    4.2777743   -2156.0817    237403.42 
   19700         19.7    379.39678   -2161.1346     5.051211   -2156.0834    226982.54 
   19800         19.8    388.90815   -2161.2623    5.1778433   -2156.0845    228332.07 
   19900         19.9    373.83235   -2161.0584    4.9771273   -2156.0813    236659.67 
   20000           20    379.82846   -2161.1372    5.0569583   -2156.0803    230642.84 
Loop time of 39.6693 on 1 procs for 20000 steps with 104 atoms

Pair  time (%) = 30.3112 (76.4097)
Kspce time (%) = 7.79126 (19.6405)
Neigh time (%) = 0.0468154 (0.118014)
Comm  time (%) = 1.05585 (2.66164)
Outpt time (%) = 0.112434 (0.283428)
Other time (%) = 0.351734 (0.886665)

Nlocal:    104 ave 104 max 104 min
Histogram: 1 0 0 0 0 0 0 0 0 0
Nghost:    3359 ave 3359 max 3359 min
Histogram: 1 0 0 0 0 0 0 0 0 0
Neighs:    21546 ave 21546 max 21546 min
Histogram: 1 0 0 0 0 0 0 0 0 0

Total # of neighbors = 21546
Ave neighs/atom = 207.173
Neighbor list builds = 24
Dangerous builds = 0

# END
